1 1 -2 0
1 -3 4 0
1 3 -5 0
1 6 7 0
1 6 -8 0
1 -6 -2 0
1 -8 6 0
1 2 -8 0
1 -2 3 0
1 -9 10 0
1 9 -3 0
1 -9 1 0
1 -11 -12 0
1 -11 13 0
1 5 10 0
1 -5 -3 0
1 -5 -11 0
1 -5 13 0
1 -14 15 0
1 -16 -17 0
1 16 -14 0
1 -18 -19 0
1 -18 15 0
1 18 9 0
1 -20 21 0
1 -15 -22 0
1 15 17 0
1 17 23 0
1 -17 8 0
1 -17 18 0
1 17 24 0
1 -25 -16 0
1 25 26 0
1 25 27 0
1 -7 -10 0
1 -7 -26 0
1 22 19 0
1 22 -21 0
1 -22 28 0
1 -29 -30 0
1 -29 -17 0
1 -29 -28 0
1 -30 -31 0
1 32 33 0
1 -32 -34 0
1 21 30 0
1 -21 35 0
1 -21 29 0
1 28 -33 0
1 36 -37 0
1 -38 39 0
1 38 40 0
1 -38 -41 0
1 42 -43 0
1 -42 -40 0
1 -42 -44 0
1 -37 -45 0
1 46 47 0
1 43 -48 0
1 43 -49 0
1 44 43 0
1 44 -50 0
1 -47 -51 0
1 13 -37 0
1 -13 -39 0
1 13 -52 0
1 -13 -49 0
1 -13 -53 0
1 13 5 0
1 -12 20 0
1 12 54 0
1 -40 55 0
1 52 56 0
1 -39 57 0
1 39 42 0
1 39 -58 0
1 -51 -59 0
1 -60 -52 0
1 60 -53 0
1 10 -22 0
1 -10 53 0
1 61 -62 0
1 -61 -63 0
1 -61 -25 0
1 -61 -64 0
1 31 -65 0
1 -31 66 0
1 31 62 0
1 31 25 0
1 -31 64 0
1 -67 12 0
1 67 -68 0
1 -67 -69 0
1 67 -70 0
1 53 -31 0
1 53 -60 0
1 -53 -71 0
1 53 24 0
1 62 -72 0
1 -62 61 0
1 62 60 0
1 54 31 0
1 -54 12 0
1 54 -62 0
1 -54 -71 0
1 -26 -7 0
1 -26 -67 0
1 26 -73 0
1 -26 -63 0
1 -24 -63 0
1 -24 -25 0
1 24 -15 0
1 -68 -67 0
1 68 73 0
1 68 27 0
1 -68 -53 0
1 -68 70 0
1 70 73 0
1 70 27 0
1 63 -2 0
1 63 -74 0
1 -63 24 0
1 -65 75 0
1 -65 31 0
1 -65 -33 0
1 65 68 0
1 65 -74 0
1 -65 70 0
1 -73 -76 0
1 -73 -26 0
1 -73 77 0
1 73 64 0
1 -73 -24 0
1 64 76 0
1 64 -73 0
1 -64 24 0
1 33 21 0
1 33 78 0
1 -74 -23 0
1 -74 -33 0
1 74 -27 0
1 -79 -65 0
1 79 -80 0
1 -79 -77 0
1 -78 -23 0
1 78 -81 0
1 -82 -83 0
1 82 27 0
1 -84 23 0
1 84 -85 0
1 86 23 0
1 86 35 0
1 -86 -78 0
1 -81 23 0
1 -81 -87 0
1 -81 88 0
1 -81 89 0
1 -88 85 0
1 -89 90 0
1 35 -84 0
1 35 80 0
1 -35 88 0
1 -85 91 0
1 -85 -92 0
1 -85 88 0
1 -91 -80 0
1 -91 92 0
1 91 85 0
1 41 -93 0
1 94 95 0
1 -94 -93 0
1 -94 42 0
1 94 96 0
1 94 97 0
1 98 99 0
1 -100 101 0
1 -95 102 0
1 -95 41 0
1 103 104 0
1 -105 106 0
1 -49 -104 0
1 107 43 0
1 96 66 0
1 -96 -58 0
1 -96 -49 0
1 -96 -103 0
1 106 -49 0
1 -104 107 0
1 -104 -105 0
1 -104 108 0
1 -104 94 0
1 -45 -109 0
1 -45 110 0
1 -109 -37 0
1 109 -111 0
1 109 -51 0
1 58 -111 0
1 -58 50 0
1 112 -66 0
1 113 -107 0
1 113 -72 0
1 -110 -114 0
1 110 -111 0
1 111 115 0
1 -111 58 0
1 116 -112 0
1 116 -62 0
1 116 117 0
1 -56 50 0
1 -56 -52 0
1 72 -62 0
1 -72 68 0
1 72 113 0
1 72 117 0
1 72 -54 0
1 -72 -118 0
1 118 112 0
1 -118 -113 0
1 -118 119 0
1 -118 -120 0
1 121 -122 0
1 121 58 0
1 117 121 0
1 117 -72 0
1 117 -71 0
1 -48 -66 0
1 48 -123 0
1 -48 116 0
1 -50 -56 0
1 -50 -66 0
1 50 124 0
1 50 -125 0
1 50 118 0
1 -76 -121 0
1 -76 -55 0
1 -76 -119 0
1 -76 -71 0
1 -71 53 0
1 71 -54 0
1 71 -64 0
1 126 121 0
1 126 73 0
1 126 -127 0
1 77 -57 0
1 -77 -126 0
1 -77 119 0
1 77 128 0
1 55 40 0
1 -55 72 0
1 55 71 0
1 -127 55 0
1 57 129 0
1 -57 130 0
1 57 119 0
1 57 -125 0
1 -57 -118 0
1 -119 131 0
1 119 -132 0
1 119 122 0
1 -119 76 0
1 119 -72 0
1 83 -122 0
1 -133 -134 0
1 -133 69 0
1 -133 -27 0
1 -133 125 0
1 -133 135 0
1 133 -136 0
1 87 -55 0
1 87 -127 0
1 -87 -137 0
1 -138 27 0
1 69 139 0
1 -69 -140 0
1 69 -138 0
1 -136 -69 0
1 -136 -141 0
1 136 77 0
1 -134 135 0
1 -134 -62 0
1 -134 142 0
1 135 139 0
1 -135 -130 0
1 -135 -133 0
1 143 -82 0
1 -143 -91 0
1 -143 144 0
1 143 -141 0
1 143 -137 0
1 -141 82 0
1 -145 92 0
1 -145 -136 0
1 92 142 0
1 146 143 0
1 -146 147 0
1 -146 148 0
1 75 -65 0
1 -75 -87 0
1 75 -149 0
1 144 150 0
1 -144 151 0
1 -137 150 0
1 -137 151 0
1 90 -152 0
1 -90 -153 0
1 90 -85 0
1 148 -154 0
1 148 155 0
1 148 -156 0
1 157 -158 0
1 -157 -159 0
1 -157 -150 0
1 -157 -154 0
1 -157 160 0
1 -153 78 0
1 153 -161 0
1 -162 -145 0
1 162 163 0
1 162 -161 0
1 -154 90 0
1 154 -158 0
1 154 148 0
1 158 145 0
1 -158 152 0
1 158 -164 0
1 158 -148 0
1 161 155 0
1 165 155 0
1 -166 162 0
1 166 -160 0
1 -163 160 0
1 160 -148 0
1 159 157 0
1 -155 -157 0
1 -167 157 0
1 168 169 0
1 -168 170 0
1 -168 106 0
1 -115 -106 0
1 171 -108 0
1 171 -111 0
1 -171 72 0
1 -120 -169 0
1 120 108 0
1 -120 -172 0
1 120 111 0
1 -120 -99 0
1 -99 -115 0
1 99 -168 0
1 99 -128 0
1 173 115 0
1 -173 -124 0
1 173 -99 0
1 -170 168 0
1 169 -115 0
1 -169 -174 0
1 124 172 0
1 124 -111 0
1 -175 -173 0
1 175 -172 0
1 -175 -50 0
1 -175 71 0
1 -123 -99 0
1 128 48 0
1 128 173 0
1 -128 -176 0
1 128 114 0
1 177 178 0
1 177 128 0
1 177 97 0
1 177 175 0
1 -177 -179 0
1 172 -171 0
1 -172 -180 0
1 -181 -180 0
1 108 -104 0
1 108 -181 0
1 108 180 0
1 -122 -48 0
1 -122 -83 0
1 122 -50 0
1 -122 117 0
1 122 177 0
1 125 50 0
1 125 -177 0
1 132 182 0
1 -132 57 0
1 -183 112 0
1 -183 -129 0
1 183 -123 0
1 -183 -142 0
1 -183 -130 0
1 -183 -125 0
1 176 -184 0
1 176 -142 0
1 -176 130 0
1 176 185 0
1 176 125 0
1 -114 186 0
1 -187 188 0
1 187 -132 0
1 -187 189 0
1 -187 -190 0
1 187 114 0
1 -129 -182 0
1 129 -55 0
1 -129 -176 0
1 129 -191 0
1 -129 130 0
1 129 -127 0
1 130 129 0
1 130 -176 0
1 -130 -191 0
1 184 192 0
1 -184 193 0
1 -142 182 0
1 142 -194 0
1 -142 -195 0
1 142 135 0
1 -193 -121 0
1 -193 -156 0
1 -182 188 0
1 -182 129 0
1 182 -196 0
1 182 -142 0
1 191 -197 0
1 -139 194 0
1 -151 193 0
1 -151 69 0
1 151 198 0
1 -151 -137 0
1 156 -148 0
1 -156 -137 0
1 -150 -199 0
1 -195 150 0
1 200 -184 0
1 -200 150 0
1 -200 142 0
1 131 184 0
1 -131 201 0
1 -131 -142 0
1 -131 -119 0
1 -149 -147 0
1 149 -161 0
1 147 -158 0
1 -147 144 0
1 -164 202 0
1 164 -199 0
1 -203 163 0
1 -140 164 0
1 204 205 0
1 -205 -203 0
1 205 -150 0
1 -205 149 0
1 -178 -108 0
1 178 -180 0
1 -178 -114 0
1 180 174 0
1 -180 -172 0
1 180 -187 0
1 180 -130 0
1 190 -206 0
1 -190 -114 0
1 207 197 0
1 207 -178 0
1 207 -186 0
1 -207 -99 0
1 206 -192 0
1 -174 178 0
1 -174 -169 0
1 188 206 0
1 188 -191 0
1 188 179 0
1 -186 -208 0
1 186 176 0
1 186 209 0
1 -186 -179 0
1 186 114 0
1 -197 -191 0
1 210 211 0
1 210 -150 0
1 179 -188 0
1 179 -192 0
1 179 -196 0
1 -179 -177 0
1 212 -210 0
1 212 -202 0
1 -209 208 0
1 -208 -209 0
1 196 -213 0
1 196 214 0
1 -196 198 0
1 202 -213 0
1 -202 200 0
1 202 201 0
1 202 179 0
1 -201 -189 0
1 -201 -131 0
1 -201 202 0
1 -213 202 0
1 -214 -213 0
1 -214 -201 0
1 211 -201 0
1 211 -189 0
1 -189 -210 0
